param NumMachines := 3;
param NumParts := 4;

param StandardCost := 20;
param OvertimeCost := 30;

param: OvertimeHour :=
1 400
2 400
3 300
;

param: MachineCosts :=
1 160
2 10
3 15
;

param: Availability :=
1 200
2 300
3 500
;

param: Prices :=
1 570
2 250
3 585
4 430
;

param: MinBatches :=
1 10
2 10
3 10
4 10
;

param TimeRequired: 1 2 3 4 :=
1 2 1 3 2
2 4 2 1 2
3 6 2 1 2
;
